(set-info :source |printed by MathSAT|)
(declare-fun |!{$(in_main#0)<N>}| () Int)
(declare-fun |!{$(in_main#0)<N>}.next| () Int)
(declare-fun |!{$(in_main#0)<i>}| () Int)
(declare-fun |!{$(in_main#0)<i>}.next| () Int)
(declare-fun |!{$(in_main#0)<z>}| () Int)
(declare-fun |!{$(in_main#0)<z>}.next| () Int)
(declare-fun |!{$(in_main#0)<a1.1>}| () (Array Int Int))
(declare-fun |!{$(in_main#0)<a1.1>}.next| () (Array Int Int))
(declare-fun |!{$(in_main#0)<a2.2>}| () (Array Int Int))
(declare-fun |!{$(in_main#0)<a2.2>}.next| () (Array Int Int))
(declare-fun |!{$(in_main#0)<$(in___VERIFIER_nondet_int#0)<h#<__VERIFIER_nondet_int.return>>>}| () Int)
(declare-fun |!{$(in_main#0)<$(in___VERIFIER_nondet_int#2)<h#<__VERIFIER_nondet_int.return>>>}| () Int)
(declare-fun |!{$(in_main#0)<$(in___VERIFIER_nondet_int#3)<h#<__VERIFIER_nondet_int.return>>>}| () Int)
(declare-fun |!{$(in_main#0)<$(in___VERIFIER_nondet_int#4)<h#<__VERIFIER_nondet_int.return>>>}| () Int)
(declare-fun !pc () Int)
(declare-fun !pc.next () Int)
(declare-fun |%{$(in_main#0)<z>}#1| () Int)
(declare-fun |%{$(in_main#0)<a1.1>}#1| () (Array Int Int))
(declare-fun |%{$(in_main#0)<a2.2>}#1| () (Array Int Int))
(declare-fun |%{$(in_main#0)<a2.2>}#2| () (Array Int Int))
(define-fun .def_43 () Int (! !pc :next !pc.next))
(define-fun .def_46 () Bool (! (= .def_43 2) :init true))
(define-fun .def_193 () Bool (= .def_43 45))
(define-fun .def_165 () Bool (= !pc.next 97))
(define-fun .def_196 () Bool (and .def_165 .def_193))
(define-fun .def_187 () Bool (= |!{$(in_main#0)<z>}.next| |!{$(in_main#0)<$(in___VERIFIER_nondet_int#4)<h#<__VERIFIER_nondet_int.return>>>}|))
(define-fun .def_8 () Int (! |!{$(in_main#0)<N>}| :next |!{$(in_main#0)<N>}.next|))
(define-fun .def_95 () Bool (= .def_8 |!{$(in_main#0)<N>}.next|))
(define-fun .def_64 () Bool (= |!{$(in_main#0)<i>}.next| 0))
(define-fun .def_155 () Bool (and .def_64 .def_95))
(define-fun .def_188 () Bool (and .def_155 .def_187))
(define-fun .def_14 () (Array Int Int) (! |!{$(in_main#0)<a1.1>}| :next |!{$(in_main#0)<a1.1>}.next|))
(define-fun .def_101 () Bool (= .def_14 |!{$(in_main#0)<a1.1>}.next|))
(define-fun .def_189 () Bool (and .def_101 .def_188))
(define-fun .def_16 () (Array Int Int) (! |!{$(in_main#0)<a2.2>}| :next |!{$(in_main#0)<a2.2>}.next|))
(define-fun .def_103 () Bool (= .def_16 |!{$(in_main#0)<a2.2>}.next|))
(define-fun .def_190 () Bool (and .def_103 .def_189))
(define-fun .def_175 () Bool (<= .def_8 |!{$(in_main#0)<$(in___VERIFIER_nondet_int#4)<h#<__VERIFIER_nondet_int.return>>>}|))
(define-fun .def_176 () Bool (not .def_175))
(define-fun .def_174 () Bool (<= 0 |!{$(in_main#0)<$(in___VERIFIER_nondet_int#4)<h#<__VERIFIER_nondet_int.return>>>}|))
(define-fun .def_177 () Bool (and .def_174 .def_176))
(define-fun .def_178 () Int (ite .def_177 1 0))
(define-fun .def_179 () Bool (= .def_178 0))
(define-fun .def_180 () Bool (not .def_179))
(define-fun .def_191 () Bool (and .def_180 .def_190))
(define-fun .def_10 () Int (! |!{$(in_main#0)<i>}| :next |!{$(in_main#0)<i>}.next|))
(define-fun .def_77 () Bool (<= .def_8 .def_10))
(define-fun .def_192 () Bool (and .def_77 .def_191))
(define-fun .def_197 () Bool (and .def_192 .def_196))
(define-fun .def_74 () Bool (= !pc.next 45))
(define-fun .def_194 () Bool (and .def_74 .def_193))
(define-fun .def_173 () (Array Int Int) (store .def_16 .def_10 |!{$(in_main#0)<$(in___VERIFIER_nondet_int#3)<h#<__VERIFIER_nondet_int.return>>>}|))
(define-fun .def_184 () Bool (= |!{$(in_main#0)<a2.2>}.next| .def_173))
(define-fun .def_172 () (Array Int Int) (store .def_14 .def_10 |!{$(in_main#0)<$(in___VERIFIER_nondet_int#2)<h#<__VERIFIER_nondet_int.return>>>}|))
(define-fun .def_182 () Bool (= |!{$(in_main#0)<a1.1>}.next| .def_172))
(define-fun .def_108 () Int (* (- 1) |!{$(in_main#0)<i>}.next|))
(define-fun .def_109 () Int (+ .def_10 .def_108))
(define-fun .def_110 () Bool (= .def_109 (- 1)))
(define-fun .def_111 () Bool (and .def_95 .def_110))
(define-fun .def_12 () Int (! |!{$(in_main#0)<z>}| :next |!{$(in_main#0)<z>}.next|))
(define-fun .def_99 () Bool (= .def_12 |!{$(in_main#0)<z>}.next|))
(define-fun .def_112 () Bool (and .def_99 .def_111))
(define-fun .def_183 () Bool (and .def_112 .def_182))
(define-fun .def_185 () Bool (and .def_183 .def_184))
(define-fun .def_78 () Bool (not .def_77))
(define-fun .def_186 () Bool (and .def_78 .def_185))
(define-fun .def_195 () Bool (and .def_186 .def_194))
(define-fun .def_198 () Bool (or .def_195 .def_197))
(define-fun .def_164 () Bool (= .def_43 97))
(define-fun .def_128 () Bool (= !pc.next 122))
(define-fun .def_168 () Bool (and .def_128 .def_164))
(define-fun .def_156 () Int (* (- 1) |!{$(in_main#0)<z>}.next|))
(define-fun .def_157 () Int (+ .def_12 .def_156))
(define-fun .def_158 () Bool (= .def_157 (- 1)))
(define-fun .def_159 () Bool (and .def_155 .def_158))
(define-fun .def_160 () Bool (and .def_101 .def_159))
(define-fun .def_161 () Bool (and .def_103 .def_160))
(define-fun .def_162 () Bool (and .def_77 .def_161))
(define-fun .def_169 () Bool (and .def_162 .def_168))
(define-fun .def_166 () Bool (and .def_164 .def_165))
(define-fun .def_151 () Bool (= |!{$(in_main#0)<a2.2>}.next| |%{$(in_main#0)<a2.2>}#2|))
(define-fun .def_113 () Bool (and .def_101 .def_112))
(define-fun .def_152 () Bool (and .def_113 .def_151))
(define-fun .def_81 () Int (select .def_14 .def_10))
(define-fun .def_139 () (Array Int Int) (store .def_16 .def_10 .def_81))
(define-fun .def_145 () Bool (= .def_139 |%{$(in_main#0)<a2.2>}#2|))
(define-fun .def_79 () Bool (= .def_10 .def_12))
(define-fun .def_80 () Bool (not .def_79))
(define-fun .def_147 () Bool (and .def_80 .def_145))
(define-fun .def_144 () Bool (= .def_16 |%{$(in_main#0)<a2.2>}#2|))
(define-fun .def_146 () Bool (and .def_79 .def_144))
(define-fun .def_148 () Bool (or .def_146 .def_147))
(define-fun .def_153 () Bool (and .def_148 .def_152))
(define-fun .def_154 () Bool (and .def_78 .def_153))
(define-fun .def_167 () Bool (and .def_154 .def_166))
(define-fun .def_170 () Bool (or .def_167 .def_169))
(define-fun .def_132 () Bool (= !pc.next 0))
(define-fun .def_123 () Bool (= .def_43 122))
(define-fun .def_133 () Bool (and .def_123 .def_132))
(define-fun .def_117 () Bool (and .def_77 .def_95))
(define-fun .def_97 () Bool (= .def_10 |!{$(in_main#0)<i>}.next|))
(define-fun .def_118 () Bool (and .def_97 .def_117))
(define-fun .def_119 () Bool (and .def_99 .def_118))
(define-fun .def_120 () Bool (and .def_101 .def_119))
(define-fun .def_121 () Bool (and .def_103 .def_120))
(define-fun .def_134 () Bool (and .def_121 .def_133))
(define-fun .def_129 () Bool (and .def_123 .def_128))
(define-fun .def_114 () Bool (and .def_103 .def_113))
(define-fun .def_82 () Int (select .def_16 .def_10))
(define-fun .def_83 () Bool (= .def_81 .def_82))
(define-fun .def_84 () Int (ite .def_83 1 0))
(define-fun .def_85 () Bool (= .def_84 0))
(define-fun .def_86 () Bool (not .def_85))
(define-fun .def_89 () Bool (and .def_80 .def_86))
(define-fun .def_92 () Bool (or .def_79 .def_89))
(define-fun .def_115 () Bool (and .def_92 .def_114))
(define-fun .def_116 () Bool (and .def_78 .def_115))
(define-fun .def_130 () Bool (and .def_116 .def_129))
(define-fun .def_125 () Bool (= !pc.next 150))
(define-fun .def_126 () Bool (and .def_123 .def_125))
(define-fun .def_96 () Bool (and .def_85 .def_95))
(define-fun .def_98 () Bool (and .def_96 .def_97))
(define-fun .def_100 () Bool (and .def_98 .def_99))
(define-fun .def_102 () Bool (and .def_100 .def_101))
(define-fun .def_104 () Bool (and .def_102 .def_103))
(define-fun .def_105 () Bool (and .def_80 .def_104))
(define-fun .def_106 () Bool (and .def_78 .def_105))
(define-fun .def_127 () Bool (and .def_106 .def_126))
(define-fun .def_131 () Bool (or .def_127 .def_130))
(define-fun .def_135 () Bool (or .def_131 .def_134))
(define-fun .def_75 () Bool (and .def_46 .def_74))
(define-fun .def_70 () Bool (= |!{$(in_main#0)<a2.2>}.next| |%{$(in_main#0)<a2.2>}#1|))
(define-fun .def_68 () Bool (= |!{$(in_main#0)<a1.1>}.next| |%{$(in_main#0)<a1.1>}#1|))
(define-fun .def_66 () Bool (= |!{$(in_main#0)<z>}.next| |%{$(in_main#0)<z>}#1|))
(define-fun .def_63 () Bool (= |!{$(in_main#0)<N>}.next| |!{$(in_main#0)<$(in___VERIFIER_nondet_int#0)<h#<__VERIFIER_nondet_int.return>>>}|))
(define-fun .def_65 () Bool (and .def_63 .def_64))
(define-fun .def_67 () Bool (and .def_65 .def_66))
(define-fun .def_69 () Bool (and .def_67 .def_68))
(define-fun .def_71 () Bool (and .def_69 .def_70))
(define-fun .def_58 () Bool (<= |!{$(in_main#0)<$(in___VERIFIER_nondet_int#0)<h#<__VERIFIER_nondet_int.return>>>}| 0))
(define-fun .def_59 () Bool (not .def_58))
(define-fun .def_60 () Int (ite .def_59 1 0))
(define-fun .def_61 () Bool (= .def_60 0))
(define-fun .def_62 () Bool (not .def_61))
(define-fun .def_72 () Bool (and .def_62 .def_71))
(define-fun .def_76 () Bool (and .def_72 .def_75))
(define-fun .def_136 () Bool (or .def_76 .def_135))
(define-fun .def_171 () Bool (or .def_136 .def_170))
(define-fun .def_199 () Bool (! (or .def_171 .def_198) :trans true))
(define-fun .def_137 () Bool (= .def_43 150))
(define-fun .def_200 () Bool (! (not .def_137) :invar-property 0 :invar-property-name ||))
(assert true)
